NAME          
ROWS
 N  OBJ
 L  c1
 L  c2
COLUMNS
    MARKER    'MARKER'                 'INTORG'
    x[1]      c1        821
    x[1]      c2        293
    x[1]      OBJ       -356
    x[2]      c1        965
    x[2]      c2        699
    x[2]      OBJ       -452
    x[3]      c1        142
    x[3]      c2        905
    x[3]      OBJ       -115
    x[4]      c1        290
    x[4]      c2        739
    x[4]      OBJ       -219
    x[5]      c1        97
    x[5]      c2        136
    x[5]      OBJ       -880
    x[6]      c1        687
    x[6]      c2        954
    x[6]      OBJ       -144
    x[7]      c1        341
    x[7]      c2        408
    x[7]      OBJ       -413
    x[8]      c1        147
    x[8]      c2        483
    x[8]      OBJ       -551
    x[9]      c1        443
    x[9]      c2        226
    x[9]      OBJ       -241
    x[10]     c1        247
    x[10]     c2        330
    x[10]     OBJ       -106
    x[11]     c1        149
    x[11]     c2        853
    x[11]     OBJ       -309
    x[12]     c1        373
    x[12]     c2        312
    x[12]     OBJ       -36
    x[13]     c1        498
    x[13]     c2        166
    x[13]     OBJ       -791
    x[14]     c1        385
    x[14]     c2        254
    x[14]     OBJ       -82
    x[15]     c1        828
    x[15]     c2        48
    x[15]     OBJ       -280
    x[16]     c1        365
    x[16]     c2        447
    x[16]     OBJ       -574
    x[17]     c1        497
    x[17]     c2        802
    x[17]     OBJ       -75
    x[18]     c1        726
    x[18]     c2        870
    x[18]     OBJ       -492
    x[19]     c1        794
    x[19]     c2        767
    x[19]     OBJ       -424
    x[20]     c1        364
    x[20]     c2        24
    x[20]     OBJ       -956
    x[21]     c1        573
    x[21]     c2        193
    x[21]     OBJ       -834
    x[22]     c1        726
    x[22]     c2        261
    x[22]     OBJ       -951
    x[23]     c1        510
    x[23]     c2        216
    x[23]     OBJ       -615
    x[24]     c1        844
    x[24]     c2        953
    x[24]     OBJ       -525
    x[25]     c1        967
    x[25]     c2        706
    x[25]     OBJ       -435
    x[26]     c1        723
    x[26]     c2        670
    x[26]     OBJ       -94
    x[27]     c1        415
    x[27]     c2        536
    x[27]     OBJ       -932
    x[28]     c1        512
    x[28]     c2        345
    x[28]     OBJ       -629
    x[29]     c1        265
    x[29]     c2        707
    x[29]     OBJ       -930
    x[30]     c1        422
    x[30]     c2        369
    x[30]     OBJ       -518
RHS
    rhs       c1        7558
    rhs       c2        7336
RANGES
BOUNDS
 BV bounds    x[1]
 BV bounds    x[2]
 BV bounds    x[3]
 BV bounds    x[4]
 BV bounds    x[5]
 BV bounds    x[6]
 BV bounds    x[7]
 BV bounds    x[8]
 BV bounds    x[9]
 BV bounds    x[10]
 BV bounds    x[11]
 BV bounds    x[12]
 BV bounds    x[13]
 BV bounds    x[14]
 BV bounds    x[15]
 BV bounds    x[16]
 BV bounds    x[17]
 BV bounds    x[18]
 BV bounds    x[19]
 BV bounds    x[20]
 BV bounds    x[21]
 BV bounds    x[22]
 BV bounds    x[23]
 BV bounds    x[24]
 BV bounds    x[25]
 BV bounds    x[26]
 BV bounds    x[27]
 BV bounds    x[28]
 BV bounds    x[29]
 BV bounds    x[30]
ENDATA
